c A SAT instance generated from a 3-CNF formula that had 40 clauses and 10 variables
p cnf 10 40
-9 4 -5 0
1 10 -4 0
-1 -9 4 0
3 -2 8 0
-4 1 2 0
-4 8 3 0
-2 8 -6 0
-10 9 2 0
-6 5 -7 0
10 4 -2 0
3 1 6 0
-4 -9 -1 0
-9 -2 -7 0
9 4 -7 0
3 -5 2 0
-8 -4 1 0
-6 -7 -3 0
9 -4 -7 0
6 3 5 0
7 -5 10 0
6 4 -9 0
4 9 2 0
8 -6 -3 0
5 -8 -6 0
-10 5 4 0
5 4 -3 0
-6 5 -2 0
9 -3 2 0
3 4 1 0
-4 10 -1 0
10 -8 5 0
10 5 6 0
5 3 -4 0
-6 -2 -7 0
-4 -9 -6 0
2 8 4 0
-7 1 6 0
-7 5 -10 0
2 -8 9 0
-8 3 -7 0
